words_hard_train/6062.qaiger
aag 63 16 0 1 47
2
4
8
12
16
20
24
28
40
48
58
62
72
78
82
120
127
6 3 5
10 6 9
14 10 13
18 14 17
22 18 21
26 22 25
30 26 29
32 27 28
34 31 33
36 23 24
38 37 27
42 39 41
44 19 20
46 45 23
50 47 49
52 43 51
54 15 16
56 55 19
60 56 58
64 63 4
66 65 11
68 11 12
70 69 15
74 71 73
76 66 75
80 79 2
84 82 9
86 80 85
88 83 8
90 87 89
92 62 5
94 91 93
96 76 95
98 70 72
100 97 99
102 57 59
104 101 103
106 61 105
108 46 48
110 106 109
112 52 111
114 38 40
116 113 115
118 35 117
122 119 121
124 34 116
126 122 125
i0 1 x2[0]
i1 1 x2[2]
i2 1 x2[1]
i3 1 x2[3]
i4 1 x2[4]
i5 1 x2[5]
i6 1 x2[6]
i7 2 y1[7]
i8 2 y1[6]
i9 2 y1[5]
i10 2 y1[4]
i11 2 y1[2]
i12 2 y1[3]
i13 2 y1[0]
i14 2 y1[1]
i15 1 x2[7]
o0 bv[0]
c
simplified
  <=
    or
      1 x2
      subtract
        2 y1
        1 x2
    unary minus
      1
