words_hard_train/6062.qaiger.qdimacs
p cnf 63 142
a 1 2 4 6 8 10 12 60 0
e 3 5 7 9 11 13 14 15 16 17 18 19 20 21 22 23 24 25 26 27 28 29 30 31 32 33 34 35 36 37 38 39 40 41 42 43 44 45 46 47 48 49 50 51 52 53 54 55 56 57 58 59 61 62 63 0
1 2 3 0
-1 -3 0
-2 -3 0
-3 4 5 0
3 -5 0
-4 -5 0
-5 6 7 0
5 -7 0
-6 -7 0
-7 8 9 0
7 -9 0
-8 -9 0
-9 10 11 0
9 -11 0
-10 -11 0
-11 12 13 0
11 -13 0
-12 -13 0
-13 14 15 0
13 -15 0
-14 -15 0
13 -14 16 0
-13 -16 0
14 -16 0
15 16 17 0
-15 -17 0
-16 -17 0
11 -12 18 0
-11 -18 0
12 -18 0
18 13 19 0
-18 -19 0
-13 -19 0
19 20 21 0
-19 -21 0
-20 -21 0
9 -10 22 0
-9 -22 0
10 -22 0
22 11 23 0
-22 -23 0
-11 -23 0
23 24 25 0
-23 -25 0
-24 -25 0
21 25 26 0
-21 -26 0
-25 -26 0
7 -8 27 0
-7 -27 0
8 -27 0
27 9 28 0
-27 -28 0
-9 -28 0
-28 -29 30 0
28 -30 0
29 -30 0
31 -2 32 0
-31 -32 0
2 -32 0
32 5 33 0
-32 -33 0
-5 -33 0
5 -6 34 0
-5 -34 0
6 -34 0
34 7 35 0
-34 -35 0
-7 -35 0
35 36 37 0
-35 -37 0
-36 -37 0
-33 37 38 0
33 -38 0
-37 -38 0
39 -1 40 0
-39 -40 0
1 -40 0
-41 4 42 0
41 -42 0
-4 -42 0
-40 42 43 0
40 -43 0
-42 -43 0
41 -4 44 0
-41 -44 0
4 -44 0
43 44 45 0
-43 -45 0
-44 -45 0
-31 2 46 0
31 -46 0
-2 -46 0
45 46 47 0
-45 -47 0
-46 -47 0
-38 47 48 0
38 -48 0
-47 -48 0
-35 -36 49 0
35 -49 0
36 -49 0
48 49 50 0
-48 -50 0
-49 -50 0
28 29 51 0
-28 -51 0
-29 -51 0
50 51 52 0
-50 -52 0
-51 -52 0
30 52 53 0
-30 -53 0
-52 -53 0
-23 -24 54 0
23 -54 0
24 -54 0
-53 54 55 0
53 -55 0
-54 -55 0
-26 55 56 0
26 -56 0
-55 -56 0
-19 -20 57 0
19 -57 0
20 -57 0
56 57 58 0
-56 -58 0
-57 -58 0
17 58 59 0
-17 -59 0
-58 -59 0
59 60 61 0
-59 -61 0
-60 -61 0
-17 -58 62 0
17 -62 0
58 -62 0
-61 62 63 0
61 -63 0
-62 -63 0
-63 0
